c --- [ banner ] -------------------------------------------------------------
c 
c CaDiCaL Radically Simplified CDCL SAT Solver
c Copyright (c) 2016-2021 A. Biere, M. Fleury, N. Froleyks
c 
c Version 1.5.2 9c38a080b32c28d805e8e6ca21849856b0cda605
c g++ (Ubuntu 7.5.0-3ubuntu1~18.04) 7.5.0 -Wall -Wextra -O3 -DNDEBUG
c Wed Feb 16 23:15:36 EST 2022 Linux fac-vanhoeve01 5.4.0-99-generic x86_64
c 
c --- [ limit ] --------------------------------------------------------------
c 
c setting time limit to 600 seconds real time (due to '-t 600')
c setting conflict limit to 1000000000 conflicts (due to '1000000000')
c 
c --- [ parsing input ] ------------------------------------------------------
c 
c reading DIMACS file from 'ddfwcnfs/queen13_13.col_13.cnf'
c opening file to read 'ddfwcnfs/queen13_13.col_13.cnf'
c found 'p cnf 2197 38519' header
c parsed 38519 clauses in 0.02 seconds process time
c closing file 'ddfwcnfs/queen13_13.col_13.cnf'
c after reading 502546 bytes 0.5 MB
c 
c --- [ options ] ------------------------------------------------------------
c 
c all options are set to their default value
c 
c --- [ solving ] ------------------------------------------------------------
c 
c time measured in process time since initialization
c 
c  seconds  reductions  redundant  irredundant
c         MB    restarts       trail     variables
c          level   conflicts       glue       remaining
c 
c *  0.02  7  0 0   0    0    0  0% 0 38350 2028 92%
c {  0.02  7  0 0   0    0    0  0% 0 38350 2028 92%
c -  0.03  8 12 1   0  300  112 28% 9 38350 2028 92%
c -  0.06  9 12 2  17  900  339 28% 9 38350 2028 92%
c }  0.06  9 11 2  17 1000  388 28% 9 38350 2028 92%
c [  0.06  9  0 2  17 1000  388  0% 0 38350 2028 92%
c O  0.06  9 23 2  17 1002  390 32% 12 38350 2028 92%
c -  0.08  9 15 3  17 1800  693 28% 12 38350 2028 92%
c ]  0.12  9 16 3  18 3004 1558 27% 13 38350 2028 92%
c {  0.12  9 11 3  18 3004 1558 28% 9 38350 2028 92%
c -  0.12  9 11 4  18 3004 1114 28% 9 38350 2028 92%
c F  0.12  9 11 4  18 3005 1115 28% 9 38350 2028 92%
c -  0.16  9 12 5  89 4504 1002 28% 10 38350 2028 92%
c #  0.29  9 24 5 433 6006 2394 45% 15 38350 2028 92%
c -  0.31  9 23 6 440 6304 1829 44% 15 38350 2028 92%
c }  0.32  9 22 6 440 7004 2203 42% 14 38350 2028 92%
c [  0.32  9 16 6 440 7004 2203 27% 13 38350 2028 92%
c -  0.37  9 20 7 441 8406 1943 33% 16 38350 2028 92%
c s  0.39 10 20 7 441 8483 1751 34% 16 38350 2028 92%
c e  0.47 10 20 7 441 8483   87 34% 16 28178 1560 71%
c 
c  seconds  reductions  redundant   irredundant
c         MB    restarts       trail      variables
c          level   conflicts       glue        remaining
c 
c ^  0.48 10 20 7 441 8483   87 34% 16 28178 1560 71%
c I  0.54  9 21 7 442 10009 1200 28% 16 28178 1560 71%
c -  0.63 10 39 8 443 10806 1931 48% 23 28178 1560 71%
c -  0.95 11 71 9 445 13507 3181 67% 37 28178 1560 71%
c ]  1.17 11 81 9 445 15004 4646 71% 42 28178 1560 71%
c {  1.17 11 22 9 445 15004 4646 60% 14 28178 1560 71%
c B  1.17 11 22 9 446 15013 4654 60% 15 28178 1560 71%
c -  1.34 11 31 10 816 16509 3945 64% 18 28178 1560 71%
c -  1.66 11 38 11 1505 19810 3870 66% 21 28178 1560 71%
c W  1.83 11 40 11 1800 21015 5031 67% 22 28178 1560 71%
c -  1.95 12 37 12 1947 23410 3825 62% 21 28178 1560 71%
c s  2.03 12 34 12 1947 25185 4388 57% 20 28178 1560 71%
c s  2.10 12 34 12 1947 25185 3895 57% 20 28178 1560 71%
c ^  2.10 12 34 12 1947 25185 3895 57% 20 28178 1560 71%
c -  2.17 12 32 13 1947 27310 3404 53% 19 28178 1560 71%
c F  2.19 12 31 13 1947 28016 3895 51% 18 28178 1560 71%
c }  2.30 12 29 13 1947 31005 6200 47% 17 28178 1560 71%
c [  2.30 12 81 13 1947 31005 6200 71% 42 28178 1560 71%
c -  2.33 12 78 14 1947 31510 4105 68% 40 28178 1560 71%
c -  2.48 12 60 15 1950 36011 4480 50% 32 28178 1560 71%
c 
c  seconds  reductions     redundant   irredundant
c         MB     restarts         trail      variables
c          level      conflicts       glue        remaining
c 
c B  2.48 12 60 15 1950 36018 4485 50% 32 28178 1560 71%
c -  2.99 15 77 16 1953 40813 5736 60% 37 28178 1560 71%
c W  3.47 15 75 16 1954 45019 9724 65% 38 28178 1560 71%
c -  3.58 13 75 17 1955 45914 6502 66% 38 28178 1560 71%
c s  4.07 13 72 17 1955 50235 10031 69% 39 28178 1560 71%
c w  4.10 13 72 17 1955 50235 10031 69% 39 28178 1560 71%
c s  4.16 13 72 17 1955 50235 9888 69% 39 28178 1560 71%
c ^  4.17 13 72 17 1955 50235 9888 69% 39 28178 1560 71%
c -  4.30 14 71 18 1955 51316 6945 69% 39 28178 1560 71%
c O  4.66 14 70 18 1956 55020 10331 71% 39 28178 1560 71%
c -  4.73 14 66 19 1958 57016 6901 68% 37 28178 1560 71%
c ]  4.92 14 58 19 1962 63005 10825 60% 34 28178 1560 71%
c {  4.92 14 29 19 1962 63005 10825 47% 17 28178 1560 71%
c -  4.93 14 29 20 1962 63016 5829 47% 17 28178 1560 71%
c B  5.05 14 27 20 1971 66022 7836 44% 17 28178 1560 71%
c -  5.20 14 27 21 2113 69317 6181 42% 17 28178 1560 71%
c -  5.45 14 24 22 2113 75918 6099 38% 15 28178 1560 71%
c W  5.58 14 23 22 2113 78024 7513 37% 15 28178 1560 71%
c -  5.76 14 22 23 2230 82819 6275 36% 15 28178 1560 71%
c s  5.80 14 22 23 2230 83635 6080 36% 15 28178 1560 71%
c 
c  seconds  reductions     redundant   irredundant
c         MB     restarts         trail      variables
c          level      conflicts       glue        remaining
c 
c w  5.83 14 22 23 2230 83635 6080 36% 15 28178 1560 71%
c s  5.88 14 22 23 2230 83635 5797 36% 15 28178 1560 71%
c ^  5.88 14 22 23 2230 83635 5797 36% 15 28178 1560 71%
c -  6.16 14 22 24 2515 90023 6188 35% 15 28178 1560 71%
c #  6.19 14 22 24 2515 91025 6662 35% 14 28178 1560 71%
c -  6.38 14 21 25 2524 97525 6031 34% 14 28178 1560 71%
c B  6.68 14 19 25 2524 105032 11050 32% 14 28178 1560 71%
c -  6.71 14 20 26 2549 105327 7083 32% 14 28178 1560 71%
c -  6.96 14 19 27 2601 113428 6313 31% 13 28178 1560 71%
c W  7.28 14 18 27 2657 120033 10230 30% 13 28178 1560 71%
c -  7.36 14 18 28 2663 121831 6835 30% 13 28178 1560 71%
c s  7.49 14 18 28 2678 125385 8290 30% 13 28178 1560 71%
c s  7.56 14 18 28 2678 125385 8071 30% 13 28178 1560 71%
c ^  7.57 14 18 28 2678 125385 8071 30% 13 28178 1560 71%
c }  7.62 14 17 28 2678 127007 9006 30% 13 28178 1560 71%
c [  7.62 14 58 28 2678 127007 9006 60% 34 28178 1560 71%
c -  7.75 14 55 29 2678 130532 7284 56% 32 28178 1560 71%
c B  7.98 14 51 29 2683 136034 11179 52% 30 28178 1560 71%
c -  8.38 16 57 30 2685 139533 9614 54% 33 28178 1560 71%
c -  9.55 18 62 31 2686 148833 11269 60% 37 28178 1560 71%
c 
c  seconds  reductions       redundant   irredundant
c         MB     restarts           trail      variables
c          level      conflicts         glue        remaining
c 
c W 10.20 18 64 31 2687 153036 15102 61% 38 28178 1560 71%
c - 11.01 17 63 32 2687 158433 12176 64% 39 28178 1560 71%
c - 12.28 15 63 33 2688 168337 12668 67% 40 28178 1560 71%
c I 12.62 15 64 33 2690 171040 14950 67% 41 28178 1560 71%
c s 13.18 15 71 33 2693 175488 18880 68% 44 28178 1560 71%
c w 13.23 15 71 33 2693 175488 18878 68% 44 28178 1560 71%
c s 13.31 15 71 33 2693 175488 18826 68% 44 28178 1560 71%
c - 13.73 20 72 34 2694 178539 13612 69% 45 28178 1560 71%
c - 15.27 20 76 35 2701 189039 13965 71% 48 28178 1560 71%
c B 15.42 20 76 35 2701 190041 14910 72% 48 28178 1560 71%
c - 16.95 20 78 36 2702 199840 14550 73% 50 28178 1560 71%
c W 18.70 20 80 36 2709 210044 23657 75% 53 28178 1560 71%
c - 18.89 21 80 37 2709 210940 14980 75% 53 28178 1560 71%
c - 20.82 18 80 38 2716 222340 14745 76% 54 28178 1560 71%
c O 22.27 18 80 38 2717 231047 22140 77% 55 28178 1560 71%
c - 22.40 22 77 39 2717 234042 14932 75% 53 28178 1560 71%
c - 22.89 22 69 40 2718 246043 12100 67% 48 28178 1560 71%
c B 23.17 22 66 40 2719 253049 17093 63% 45 28178 1560 71%
c ] 23.36 22 69 40 2719 255007 18964 64% 46 28178 1560 71%
c { 23.36 22 17 40 2719 255007 18964 30% 13 28178 1560 71%
c 
c  seconds  reductions       redundant   irredundant
c         MB     restarts           trail      variables
c          level      conflicts         glue        remaining
c 
c - 23.52 22 18 41 2919 258343 12334 30% 13 28178 1560 71%
c - 23.97 22 17 42 3100 270943 10654 29% 13 28178 1560 71%
c F 24.22 22 17 42 3299 276050 14116 29% 13 28178 1560 71%
c - 24.47 22 17 43 3326 283847 10965 29% 13 28178 1560 71%
c - 24.96 22 16 44 3439 297049 10344 28% 12 28178 1560 71%
c B 25.06 22 16 44 3474 300052 11810 28% 12 28178 1560 71%
c - 25.54 22 17 45 3935 310551 11081 29% 12 28178 1560 71%
c - 26.05 22 16 46 4087 324352 11268 28% 12 28178 1560 71%
c W 26.30 22 16 46 4101 325053 11668 28% 12 28178 1560 71%
c - 26.86 22 16 47 4691 338452 11923 28% 12 28178 1560 71%
c # 27.28 22 16 47 5026 351057 19088 28% 12 28178 1560 71%
c - 27.35 22 16 48 5051 352852 11664 28% 12 28178 1560 71%
c - 28.04 22 17 49 5933 367552 12826 29% 13 28178 1560 71%
c B 28.37 22 17 49 6033 378058 18620 28% 13 28178 1560 71%
c - 28.81 22 18 50 6855 382552 12899 30% 13 28178 1560 71%
c - 29.87 22 20 51 8645 397856 14562 33% 14 28178 1560 71%
c W 30.80 22 22 51 9725 406060 20852 35% 15 28178 1560 71%
c - 31.09 22 21 52 9869 413456 14934 34% 15 28178 1560 71%
c - 31.70 22 20 53 9887 429357 14291 33% 14 28178 1560 71%
c F 31.94 22 20 53 9889 435061 17786 32% 14 28178 1560 71%
c 
c  seconds  reductions       redundant   irredundant
c         MB     restarts           trail      variables
c          level      conflicts         glue        remaining
c 
c - 32.33 22 19 54 9907 445557 14229 31% 14 28178 1560 71%
c - 33.04 22 18 55 9983 462057 14042 30% 13 28178 1560 71%
c B 33.15 22 18 55 9983 465062 15576 30% 13 28178 1560 71%
c - 33.62 22 18 56 10356 478857 13865 29% 13 28178 1560 71%
c s 33.64 22 18 56 10356 478857 11197 29% 13 28178 1560 71%
c w 33.70 22 18 56 10356 478857 11196 29% 13 28178 1560 71%
c - 34.39 22 17 57 10458 495958 13451 28% 13 28178 1560 71%
c W 34.74 22 17 57 10458 496063 13505 28% 13 28178 1560 71%
c } 35.38 22 16 57 10575 511007 22213 28% 12 28178 1560 71%
c [ 35.38 22 69 57 10575 511007 22213 64% 46 28178 1560 71%
c - 35.50 22 72 58 10575 513359 15332 64% 45 28178 1560 71%
c W 36.76 22 82 58 10575 528064 26469 60% 43 28178 1560 71%
c - 36.98 22 81 59 10575 531060 18366 59% 43 28178 1560 71%
c - 38.26 22 73 60 10582 549060 19690 53% 40 28178 1560 71%
c I 39.10 22 68 60 10589 561065 28537 49% 38 28178 1560 71%
c - 40.08 28 92 61 10590 567360 21823 51% 47 28178 1560 71%
c - 43.23 32 113 62 10598 585960 23450 56% 59 28178 1560 71%
c B 44.49 32 110 62 10604 595066 31545 59% 58 28178 1560 71%
c - 46.10 26 105 63 10605 604860 23216 61% 57 28178 1560 71%
c - 49.07 32 95 64 10607 624060 23723 65% 54 28178 1560 71%
c 
c  seconds  reductions        redundant   irredundant
c         MB      restarts           trail      variables
c          level       conflicts         glue        remaining
c 
c W 50.45 32 93 64 10612 630067 29060 66% 53 28178 1560 71%
c - 53.10 32 87 65 10619 643560 24342 68% 52 28178 1560 71%
c - 56.32 32 80 66 10627 663360 24471 71% 50 28178 1560 71%
c O 56.72 32 79 66 10628 666068 26717 71% 49 28178 1560 71%
c - 57.57 32 69 67 10636 683461 21808 64% 44 28178 1560 71%
c B 58.56 32 61 67 10637 703069 35122 56% 39 28178 1560 71%
c - 58.66 32 62 68 10637 703861 20931 56% 39 28178 1560 71%
c - 61.28 33 70 69 10638 724561 24369 61% 43 28178 1560 71%
c W 64.61 33 72 69 10639 741071 39515 64% 45 28178 1560 71%
c - 65.68 41 72 70 10639 745561 27004 65% 45 28178 1560 71%
c - 69.65 41 69 71 10639 766863 28579 69% 45 28178 1560 71%
c I 71.71 41 67 71 10639 780073 40510 71% 44 28178 1560 71%
c - 72.75 41 86 72 10639 788463 28623 71% 47 28178 1560 71%
c - 76.86 55 121 73 10643 810364 28807 73% 57 28178 1560 71%
c B 78.26 55 118 73 10648 820074 37602 74% 57 28178 1560 71%
c - 79.90 41 114 74 10654 832564 27671 75% 57 28178 1560 71%
c s 79.94 41 114 74 10654 832564 25944 75% 57 28178 1560 71%
c w 80.04 41 114 74 10654 832564 25944 75% 57 28178 1560 71%
c - 84.06 41 105 75 10664 855065 27983 77% 56 28178 1560 71%
c W 85.75 41 102 75 10668 861075 32905 77% 56 28178 1560 71%
c 
c  seconds  reductions        redundant   irredundant
c         MB      restarts           trail      variables
c          level       conflicts         glue        remaining
c 
c - 88.39 41 95 76 10670 877865 28433 78% 54 28178 1560 71%
c - 92.77 41 87 77 10677 900966 29328 79% 52 28178 1560 71%
c O 93.12 41 87 77 10679 903079 31197 79% 52 28178 1560 71%
c - 94.08 41 75 78 10688 924367 25049 68% 45 28178 1560 71%
c B 95.35 41 64 78 10699 946081 40530 59% 39 28178 1560 71%
c - 95.57 41 65 79 10700 948068 25284 60% 40 28178 1560 71%
c - 98.73 41 64 80 10702 972069 28874 65% 40 28178 1560 71%
c W 102.52 41 62 80 10702 990084 44424 68% 40 28178 1560 71%
c - 103.86 41 62 81 10702 996370 30742 68% 40 28178 1560 71%
c - 108.74 41 58 82 10712 1020971 32012 72% 39 28178 1560 71%
c ] 109.11 41 57 82 10714 1023010 33640 72% 39 28178 1560 71%
c { 109.11 41 16 82 10714 1023010 33640 28% 12 28178 1560 71%
c # 109.56 41 16 82 10880 1035085 40192 27% 12 28178 1560 71%
c - 109.95 41 16 83 10890 1045872 24744 27% 12 28178 1560 71%
c - 110.99 41 15 84 10994 1071074 22760 26% 12 28178 1560 71%
c B 111.39 41 15 84 11061 1081086 28849 26% 12 28178 1560 71%
c - 112.04 41 15 85 11882 1096578 23269 26% 12 28178 1560 71%
c - 112.95 41 15 86 12537 1122378 20035 26% 12 28178 1560 71%
c W 113.92 41 15 86 12631 1128089 22843 26% 11 28178 1560 71%
c - 114.80 41 14 87 12921 1148478 19565 25% 11 28178 1560 71%
c 
c  seconds   reductions         redundant   irredundant
c          MB      restarts            trail      variables
c           level        conflicts         glue        remaining
c 
c - 115.88 41 14 88 13506 1174879 19737 25% 11 28178 1560 71%
c F 115.93 41 14 88 13527 1176090 20418 25% 11 28178 1560 71%
c - 116.87 41 13 89 14474 1201579 19056 25% 11 28178 1560 71%
c B 117.78 41 13 89 15232 1225091 30044 24% 11 28178 1560 71%
c - 118.13 41 14 90 15875 1228580 19470 26% 11 28178 1560 71%
c s 118.16 41 14 90 15875 1228580 16907 26% 11 28178 1560 71%
c w 118.22 41 14 90 15875 1228580 16905 26% 11 28178 1560 71%
c - 119.39 41 15 91 16381 1255881 24790 25% 11 28178 1560 71%
c W 121.81 41 18 91 18131 1275093 39948 28% 12 28178 1560 71%
c - 122.24 41 18 92 18911 1283482 27482 29% 12 28178 1560 71%
c - 123.44 41 18 93 19864 1311384 24640 29% 12 28178 1560 71%
c # 124.00 41 17 93 19931 1326095 33671 29% 12 28178 1560 71%
c - 124.46 41 17 94 19998 1339584 24207 28% 12 28178 1560 71%
c - 125.65 41 16 95 20389 1368086 22867 27% 12 28178 1560 71%
c B 126.08 41 16 95 20459 1378098 28459 27% 12 28178 1560 71%
c - 126.80 41 15 96 20919 1396888 22652 27% 12 28178 1560 71%
c - 127.96 41 15 97 21669 1425990 22265 27% 12 28178 1560 71%
c W 129.05 41 15 97 21702 1431099 25024 27% 12 28178 1560 71%
c - 130.63 41 18 98 23810 1455390 25167 30% 13 28178 1560 71%
c - 132.04 41 18 99 24899 1485090 26687 30% 13 28178 1560 71%
c 
c  seconds   reductions         redundant   irredundant
c          MB      restarts            trail      variables
c           level        conflicts         glue        remaining
c 
c F 132.04 41 18 99 24899 1485100 26695 30% 13 28178 1560 71%
c - 133.20 41 17 100 25202 1515091 24788 29% 12 28178 1560 71%
c B 134.27 41 16 100 25598 1540102 38455 27% 12 28178 1560 71%
c - 134.53 41 16 101 25862 1545391 23863 28% 12 28178 1560 71%
c - 135.81 41 17 102 27060 1575992 25095 28% 12 28178 1560 71%
c W 137.58 41 16 102 27424 1596103 36659 27% 12 28178 1560 71%
c - 138.03 41 16 103 27632 1606892 24592 27% 12 28178 1560 71%
c - 139.52 41 15 104 27977 1638093 24806 25% 12 28178 1560 71%
c # 140.16 41 14 104 28154 1653109 32914 25% 12 28178 1560 71%
c - 140.89 41 14 105 28428 1669594 24599 24% 11 28178 1560 71%
c s 140.92 41 14 105 28428 1669594 20660 24% 11 28178 1560 71%
c w 140.98 41 14 105 28428 1669594 20658 24% 11 28178 1560 71%
c - 142.06 41 14 106 28903 1701395 23508 24% 11 28178 1560 71%
c B 142.43 41 14 106 29085 1711112 29186 24% 11 28178 1560 71%
c - 143.71 41 16 107 31164 1733495 27466 27% 12 28178 1560 71%
c - 144.98 41 15 108 31760 1765898 24930 26% 12 28178 1560 71%
c W 146.28 41 15 108 31813 1770113 26902 26% 12 28178 1560 71%
c - 147.46 41 15 109 32522 1798598 25269 26% 12 28178 1560 71%
c F 148.64 41 14 109 32887 1830114 43079 25% 11 28178 1560 71%
c - 148.73 41 14 110 32899 1831599 26238 25% 11 28178 1560 71%
c 
c  seconds    reductions         redundant   irredundant
c          MB       restarts            trail      variables
c           level         conflicts         glue        remaining
c 
c - 150.00 41 14 111 33353 1864901 25748 25% 11 28178 1560 71%
c B 151.05 41 13 111 33799 1891115 40000 25% 11 28178 1560 71%
c - 151.86 41 16 112 35268 1898501 28310 28% 12 28178 1560 71%
c - 153.29 41 16 113 36233 1932401 28074 27% 12 28178 1560 71%
c W 155.50 41 15 113 36470 1953116 39029 26% 12 28178 1560 71%
c - 156.20 41 15 114 36610 1966602 26370 26% 12 28178 1560 71%
c - 157.77 41 14 115 37211 2001102 24840 25% 11 28178 1560 71%
c # 158.38 41 14 115 37389 2016118 32216 25% 11 28178 1560 71%
c - 159.26 41 13 116 37909 2035903 24921 25% 11 28178 1560 71%
c } 159.70 41 13 116 38178 2047011 30427 25% 11 28178 1560 71%
c [ 159.70 41 57 116 38178 2047011 30427 72% 39 28178 1560 71%
c - 160.88 41 55 117 38188 2071004 30188 64% 35 28178 1560 71%
c I 161.30 41 52 117 38193 2080119 36648 61% 34 28178 1560 71%
c - 165.80 41 63 118 38197 2106406 40366 66% 41 28178 1560 71%
c - 175.17 55 72 119 38212 2142106 43665 71% 49 28178 1560 71%
c s 175.20 55 72 119 38212 2142106 38856 71% 49 28178 1560 71%
c w 175.39 55 72 119 38212 2142106 38856 71% 49 28178 1560 71%
c B 176.04 55 73 119 38213 2145121 41642 71% 50 28178 1560 71%
c - 184.16 56 75 120 38228 2178106 46184 75% 52 28178 1560 71%
c W 193.91 56 77 120 38229 2211122 76893 77% 53 28178 1560 71%
c 
c  seconds    reductions         redundant   irredundant
c          MB       restarts            trail      variables
c           level         conflicts         glue        remaining
c 
c - 195.16 56 77 121 38229 2214406 48844 77% 53 28178 1560 71%
c - 205.68 57 77 122 38230 2251006 52157 78% 53 28178 1560 71%
c O 213.05 57 77 122 38230 2278124 77686 80% 53 28178 1560 71%
c - 213.62 41 72 123 38230 2287906 51095 75% 50 28178 1560 71%
c - 216.23 47 58 124 38231 2325107 41413 61% 40 28178 1560 71%
c B 217.81 47 54 124 38231 2346125 57209 54% 37 28178 1560 71%
c - 220.08 47 77 125 38231 2362609 44512 58% 42 28178 1560 71%
c - 226.72 53 118 126 38231 2400410 48958 66% 49 28178 1560 71%
c W 231.56 53 130 126 38231 2415129 63016 69% 52 28178 1560 71%
c - 236.80 68 120 127 38238 2438511 51439 72% 54 28178 1560 71%
c - 248.21 68 107 128 38256 2476911 51456 76% 55 28178 1560 71%
c I 250.86 68 104 128 38260 2485131 58721 77% 55 28178 1560 71%
c - 257.33 68 117 129 38267 2515611 51919 78% 65 28178 1560 71%
c - 265.24 85 120 130 38284 2554611 50307 77% 69 28178 1560 71%
c B 265.50 85 120 130 38285 2556132 51743 77% 69 28178 1560 71%
c - 272.43 68 104 131 38294 2593911 47693 78% 63 28178 1560 71%
c W 282.70 68 92 131 38296 2628138 76570 79% 59 28178 1560 71%
c - 283.38 68 90 132 38300 2633511 48979 79% 58 28178 1560 71%
c - 289.50 68 74 133 38318 2673412 46770 80% 50 28178 1560 71%
c s 289.61 68 74 133 38318 2673412 46119 80% 50 28178 1560 71%
c 
c  seconds    reductions         redundant   irredundant
c          MB       restarts            trail      variables
c           level         conflicts         glue        remaining
c 
c w 289.80 68 74 133 38318 2673412 46106 80% 50 28178 1560 71%
c O 295.33 68 66 133 38325 2701139 68966 80% 47 28178 1560 71%
c - 297.38 68 63 134 38328 2713612 51382 80% 45 28178 1560 71%
c - 304.88 68 56 135 38347 2754113 50094 80% 42 28178 1560 71%
c B 308.93 68 53 135 38355 2775141 67463 80% 40 28178 1560 71%
c - 312.80 68 51 136 38357 2794913 52590 81% 40 28178 1560 71%
c - 320.91 68 49 137 38358 2836013 53278 81% 39 28178 1560 71%
c W 325.81 68 48 137 38358 2850142 66021 81% 38 28178 1560 71%
c - 332.60 68 47 138 38358 2877413 53548 81% 38 28178 1560 71%
c - 342.59 68 46 139 38373 2919114 56458 81% 38 28178 1560 71%
c I 344.44 68 46 139 38374 2926146 62340 81% 38 28178 1560 71%
c - 350.06 68 63 140 38389 2961114 55603 81% 45 28178 1560 71%
c B 360.36 68 72 140 38404 3003147 91583 80% 52 28178 1560 71%
c - 360.53 68 72 141 38404 3003415 53285 80% 52 28178 1560 71%
c - 373.31 68 72 142 38420 3046015 53837 81% 53 28178 1560 71%
c W 384.39 68 72 142 38421 3081148 83466 81% 54 28178 1560 71%
c - 387.52 68 72 143 38421 3088916 55844 81% 54 28178 1560 71%
c - 398.73 68 72 144 38442 3132117 57162 80% 54 28178 1560 71%
c O 405.57 68 71 144 38452 3160151 81301 80% 53 28178 1560 71%
c - 406.53 68 64 145 38453 3175617 53970 72% 47 28178 1560 71%
c 
c  seconds    reductions         redundant   irredundant
c          MB       restarts            trail      variables
c           level         conflicts         glue        remaining
c 
c - 410.68 68 51 146 38474 3219417 42930 53% 38 28178 1560 71%
c s 410.84 68 51 146 38474 3219417 42393 53% 38 28178 1560 71%
c w 411.09 68 51 146 38474 3219417 42382 53% 38 28178 1560 71%
c B 413.80 68 45 146 38482 3240154 55374 47% 34 28178 1560 71%
c - 417.75 68 53 147 38484 3263518 49661 54% 38 28178 1560 71%
c - 428.44 68 61 148 38485 3307918 55763 63% 44 28178 1560 71%
c W 434.72 68 62 148 38485 3321159 67524 65% 45 28178 1560 71%
c - 445.05 68 60 149 38485 3352618 59117 70% 44 28178 1560 71%
c - 459.23 68 59 150 38486 3397619 62251 74% 43 28178 1560 71%
c I 460.67 68 59 150 38486 3403160 67458 74% 43 28178 1560 71%
c - 472.22 94 124 151 38486 3442919 61122 76% 62 28178 1560 71%
c B 489.03 94 173 151 38486 3486162 101441 78% 79 28178 1560 71%
c - 490.71 95 172 152 38486 3488520 59168 78% 79 28178 1560 71%
c - 511.05 68 147 153 38487 3534420 61722 80% 78 28178 1560 71%
c W 530.31 68 132 153 38487 3570164 93687 81% 77 28178 1560 71%
c - 535.50 88 128 154 38487 3580623 61859 81% 76 28178 1560 71%
c - 556.30 88 114 155 38487 3627124 62408 82% 74 28178 1560 71%
c O 567.63 88 107 155 38487 3655165 86547 82% 72 28178 1560 71%
c - 568.89 88 92 156 38487 3673925 58581 72% 63 28178 1560 71%
c - 573.01 88 67 157 38487 3721025 47256 54% 45 28178 1560 71%
c 
c  seconds    reductions         redundant   irredundant
c          MB       restarts            trail      variables
c           level         conflicts         glue        remaining
c 
c B 576.20 88 72 157 38487 3741166 66230 59% 45 28178 1560 71%
c - 579.38 88 79 158 38495 3768425 55037 61% 44 28178 1560 71%
c - 592.62 88 69 159 38517 3816125 56672 69% 43 28178 1560 71%
c s 592.72 88 69 159 38517 3816125 53060 69% 43 28178 1560 71%
c w 592.99 88 69 159 38517 3816125 53059 69% 43 28178 1560 71%
c W 599.44 88 67 159 38518 3828169 63000 71% 43 28178 1560 71%
c ] 599.95 88 66 159 38518 3830405 64844 71% 43 28178 1560 71%
c ? 599.95 88 66 159 38518 3830405 64844 71% 43 28178 1560 71%
c 
c --- [ result ] -------------------------------------------------------------
c 
c UNKNOWN
c 
c --- [ run-time profiling ] -------------------------------------------------
c 
c process time taken by individual solving procedures
c (percentage relative to process time for solving)
c 
c       592.47   98.76% search
c       505.57   84.27% stable
c        58.01    9.67% unstable
c        28.89    4.82% walk
c         7.47    1.24% simplify
c         3.71    0.62% probe
c         1.22    0.20% vivify
c         0.69    0.11% subsume
c         0.52    0.09% ternary
c         0.19    0.03% elim
c         0.02    0.00% parse
c         0.00    0.00% lucky
c   =================================
c       599.93  100.00% solve
c 
c last line shows process time for solving
c (percentage relative to total process time)
c 
c --- [ statistics ] ---------------------------------------------------------
c 
c chronological:            593095        15.48 %  of conflicts
c conflicts:               3830405      6384.73    per second
c decisions:               5365876      8944.14    per second
c eliminated:                  468        21.30 %  of all variables
c fixed:                       169         7.69 %  of all variables
c learned:                 3787419        98.88 %  per conflict
c learned_lits:          369910274       100.00 %  learned literals
c minimized:                     0         0.00 %  learned literals
c shrunken:              146942457        39.72 %  learned literals
c minishrunken:           28572870         7.72 %  learned literals
c propagations:          440456345         0.73 M  per second
c reduced:                 2817603        73.56 %  per conflict
c rephased:                     87     44027.64    interval
c restarts:                  38518        99.44    interval
c stabilizing:                   6        64.36 %  of conflicts
c subsumed:                 903272        11.79 %  of all clauses
c strengthened:              19101         0.25 %  of all clauses
c vivified:                    242         0.00 %  of all clauses
c walked:                       28    136800.18    interval
c weakened:                  15043         2.40    average size
c 
c seconds are measured in process time for solving
c 
c --- [ resources ] ----------------------------------------------------------
c 
c total process time since initialization:       599.95    seconds
c total real time since initialization:          600.00    seconds
c maximum resident set size of process:          121.08    MB
c 
c --- [ shutting down ] ------------------------------------------------------
c 
c exit 0
